c File: instances/18_0.60_1.col
c
c Description: Random graph of size 18 vertices and P(0.6) of edges between any two vertices.
p col 18 153
e 1 2
e 1 4
e 1 5
e 1 7
e 1 8
e 1 9
e 1 11
e 1 13
e 1 14
e 1 17
e 1 18
e 2 3
e 2 7
e 2 8
e 2 9
e 2 12
e 2 13
e 2 14
e 2 15
e 2 16
e 2 17
e 2 18
e 3 4
e 3 6
e 3 7
e 3 8
e 3 9
e 3 10
e 3 12
e 3 15
e 3 16
e 3 18
e 4 5
e 4 8
e 4 9
e 4 16
e 5 6
e 5 10
e 5 11
e 5 12
e 5 13
e 5 14
e 5 16
e 5 17
e 6 8
e 6 11
e 6 14
e 6 15
e 6 16
e 6 17
e 6 18
e 7 8
e 7 9
e 7 11
e 7 14
e 7 16
e 7 18
e 8 9
e 8 12
e 8 14
e 8 15
e 8 16
e 8 17
e 8 18
e 9 10
e 9 12
e 9 14
e 9 15
e 9 16
e 9 17
e 9 18
e 10 13
e 10 15
e 10 16
e 10 17
e 11 12
e 11 14
e 11 15
e 11 16
e 11 17
e 11 18
e 12 14
e 12 15
e 13 15
e 13 16
e 14 16
e 14 17
e 15 17
e 15 18
e 16 18
e 17 18